(set-info :smt-lib-version 2.6)
(set-logic UFDTLIA)
(set-info :source |
Generated by: Pierre Carbonnelle
Generated on: 2026-04-28
Generator: https://github.com/xmt-lib/benchmarks
Application: test of grounders
Target solver: Z3
Publications: https://arxiv.org/abs/2602.19102
Time limit: 300
From the DIRT benchmark used to evaluate grounders
|)
(set-info :license "https://creativecommons.org/licenses/by/4.0/")
(set-info :category "crafted")
(set-info :status sat)

(declare-datatype Square ( (q1) (q2) (q3) (q4) (q5) (q6) (q7) (q8) (q9) (q10) (q11) (q12) (q13) (q14) (q15) (q16) (q17) (q18) (q19) (q20) (q21) (q22) (q23) (q24) (q25) (q26) (q27) (q28) (q29) (q30) (q31) ))

(declare-fun pos_x (Square) Int)
(declare-fun pos_y (Square) Int)

(define-fun square_size ((x Square)) Int (ite (= x q1) 88
  (ite (= x q2) 106
  (ite (= x q3) 37
  (ite (= x q4) 47
  (ite (= x q5) 57
  (ite (= x q6) 145
  (ite (= x q7) 9
  (ite (= x q8) 28
  (ite (= x q9) 9
  (ite (= x q10) 10
  (ite (= x q11) 24
  (ite (= x q12) 23
  (ite (= x q13) 16
  (ite (= x q14) 47
  (ite (= x q15) 23
  (ite (= x q16) 24
  (ite (= x q17) 27
  (ite (= x q18) 22
  (ite (= x q19) 42
  (ite (= x q20) 13
  (ite (= x q21) 6
  (ite (= x q22) 8
  (ite (= x q23) 46
  (ite (= x q24) 25
  (ite (= x q25) 8
  (ite (= x q26) 14
  (ite (= x q27) 45
  (ite (= x q28) 45
  (ite (= x q29) 5
  (ite (= x q30) 42
  (ite (= x q31) 37
  0))))))))))))))))))))))))))))))))
(define-fun area_width () Int 300)
(define-fun area_height () Int 250)

(assert (forall ((s Square)) (<= 0 (pos_x s))))
(assert (forall ((s Square)) (<= 0 (pos_y s))))
(assert (forall ((s Square)) (<= (+ (pos_x s) (square_size s)) area_width)))
(assert (forall ((s Square)) (<= (+ (pos_y s) (square_size s)) area_height)))

(assert (forall ((s1 Square) (s2 Square))
                (=> (not (= s1 s2))
                    (or (>= (pos_x s1) (+ (pos_x s2) (square_size s2)))
                        (>= (pos_x s2) (+ (pos_x s1) (square_size s1)))
                        (>= (pos_y s1) (+ (pos_y s2) (square_size s2)))
                        (>= (pos_y s2) (+ (pos_y s1) (square_size s1)))))))

(check-sat)
(exit)
